# Node Net
4842   1
910   1
3990   1
  5   2
771   2
4891   2
4201   3
4892   3
141   3
4410   4
 70   4
2101   4
 14   5
 22   5
4060   5
 32   6
3921   6
700   6
4898   7
2311   7
4847   7
1051   8
2241   8
4873   8
4481   9
560   9
4887  10
 36  10
4857  11
 29  11
